PROBLEM NAME: 	u159-TTP
KNAPSACK DATA TYPE: uncorrelated, similar weights
DIMENSION:	159
NUMBER OF ITEMS: 	158
CAPACITY OF KNAPSACK: 	129868
MIN SPEED: 	0.1
MAX SPEED: 	1
RENTING RATIO: 	0.71
EDGE_WEIGHT_TYPE:	CEIL_2D
NODE_COORD_SECTION	(INDEX, X, Y): 
1	3.30000e+03	2.20000e+03
2	3.50000e+03	2.90000e+03
3	3.30000e+03	2.90000e+03
4	3.50000e+03	3.10000e+03
5	3.50000e+03	3.30000e+03
6	3.30000e+03	3.50000e+03
7	3.50000e+03	3.70000e+03
8	3.50000e+03	3.90000e+03
9	3.50000e+03	4.00000e+03
10	3.50000e+03	4.10000e+03
11	3.50000e+03	4.30000e+03
12	3.30000e+03	4.30000e+03
13	3.50000e+03	4.50000e+03
14	3.50000e+03	4.70000e+03
15	3.50000e+03	4.80000e+03
16	3.30000e+03	4.90000e+03
17	3.50000e+03	5.00000e+03
18	3.80000e+03	5.50000e+03
19	3.90000e+03	5.70000e+03
20	3.80000e+03	5.80000e+03
21	3.70000e+03	5.80000e+03
22	3.50000e+03	5.60000e+03
23	3.50000e+03	5.70000e+03
24	3.30000e+03	5.90000e+03
25	3.50000e+03	6.10000e+03
26	3.30000e+03	6.50000e+03
27	3.50000e+03	6.40000e+03
28	3.80000e+03	6.60000e+03
29	4.50000e+03	6.50000e+03
30	4.70000e+03	6.10000e+03
31	4.30000e+03	5.70000e+03
32	4.50000e+03	5.40000e+03
33	5.10000e+03	5.30000e+03
34	5.10000e+03	5.00000e+03
35	5.00000e+03	5.00000e+03
36	5.10000e+03	4.70000e+03
37	5.00000e+03	4.70000e+03
38	5.20000e+03	4.50000e+03
39	5.50000e+03	4.40000e+03
40	5.60000e+03	4.40000e+03
41	5.50000e+03	4.10000e+03
42	5.70000e+03	3.90000e+03
43	5.90000e+03	4.10000e+03
44	6.10000e+03	3.90000e+03
45	6.30000e+03	4.10000e+03
46	6.50000e+03	4.10000e+03
47	6.70000e+03	4.10000e+03
48	6.90000e+03	4.10000e+03
49	7.00000e+03	4.50000e+03
50	7.30000e+03	4.50000e+03
51	7.30000e+03	4.70000e+03
52	7.40000e+03	5.10000e+03
53	7.70000e+03	5.50000e+03
54	7.80000e+03	5.70000e+03
55	7.30000e+03	6.20000e+03
56	7.30000e+03	6.50000e+03
57	7.60000e+03	6.50000e+03
58	7.70000e+03	6.60000e+03
59	8.10000e+03	6.60000e+03
60	8.50000e+03	6.30000e+03
61	8.50000e+03	6.00000e+03
62	8.50000e+03	5.70000e+03
63	8.20000e+03	5.70000e+03
64	8.50000e+03	5.30000e+03
65	8.50000e+03	5.20000e+03
66	8.50000e+03	5.10000e+03
67	8.50000e+03	5.00000e+03
68	8.50000e+03	4.90000e+03
69	8.50000e+03	4.80000e+03
70	8.50000e+03	4.70000e+03
71	8.50000e+03	4.60000e+03
72	8.50000e+03	4.50000e+03
73	8.20000e+03	4.60000e+03
74	7.80000e+03	4.60000e+03
75	7.70000e+03	4.30000e+03
76	8.00000e+03	4.30000e+03
77	8.10000e+03	4.00000e+03
78	8.50000e+03	4.20000e+03
79	8.50000e+03	4.10000e+03
80	8.50000e+03	4.00000e+03
81	8.50000e+03	3.90000e+03
82	8.50000e+03	3.80000e+03
83	8.50000e+03	3.70000e+03
84	8.50000e+03	3.60000e+03
85	8.50000e+03	3.50000e+03
86	8.50000e+03	3.40000e+03
87	8.20000e+03	3.20000e+03
88	8.00000e+03	3.20000e+03
89	7.80000e+03	3.40000e+03
90	7.60000e+03	3.40000e+03
91	7.40000e+03	3.40000e+03
92	7.30000e+03	3.00000e+03
93	7.30000e+03	2.80000e+03
94	7.70000e+03	3.20000e+03
95	8.00000e+03	2.90000e+03
96	8.10000e+03	3.00000e+03
97	8.50000e+03	3.10000e+03
98	8.50000e+03	3.00000e+03
99	8.50000e+03	2.90000e+03
100	8.50000e+03	2.80000e+03
101	8.50000e+03	2.70000e+03
102	8.50000e+03	2.60000e+03
103	8.50000e+03	2.50000e+03
104	8.50000e+03	2.40000e+03
105	8.50000e+03	2.30000e+03
106	8.20000e+03	2.10000e+03
107	7.80000e+03	2.10000e+03
108	6.90000e+03	2.20000e+03
109	6.70000e+03	2.30000e+03
110	6.50000e+03	2.30000e+03
111	6.30000e+03	2.30000e+03
112	6.10000e+03	2.30000e+03
113	5.90000e+03	2.30000e+03
114	5.90000e+03	2.90000e+03
115	6.10000e+03	2.90000e+03
116	6.30000e+03	2.90000e+03
117	6.50000e+03	2.90000e+03
118	6.70000e+03	2.90000e+03
119	6.70000e+03	3.50000e+03
120	6.50000e+03	3.50000e+03
121	6.30000e+03	3.50000e+03
122	6.10000e+03	3.50000e+03
123	5.90000e+03	3.50000e+03
124	5.30000e+03	2.80000e+03
125	4.70000e+03	2.10000e+03
126	4.30000e+03	2.60000e+03
127	4.70000e+03	2.90000e+03
128	5.00000e+03	3.10000e+03
129	5.10000e+03	2.90000e+03
130	5.30000e+03	3.10000e+03
131	5.00000e+03	3.40000e+03
132	5.20000e+03	3.70000e+03
133	5.00000e+03	3.90000e+03
134	5.10000e+03	3.90000e+03
135	5.10000e+03	4.20000e+03
136	5.00000e+03	4.20000e+03
137	4.70000e+03	4.40000e+03
138	4.70000e+03	4.70000e+03
139	4.30000e+03	4.40000e+03
140	4.30000e+03	4.60000e+03
141	4.10000e+03	4.40000e+03
142	3.90000e+03	4.60000e+03
143	3.70000e+03	4.40000e+03
144	3.70000e+03	4.30000e+03
145	3.80000e+03	4.30000e+03
146	3.70000e+03	4.10000e+03
147	3.70000e+03	4.00000e+03
148	3.70000e+03	3.90000e+03
149	3.80000e+03	4.00000e+03
150	3.90000e+03	3.80000e+03
151	3.70000e+03	3.70000e+03
152	3.50000e+03	3.60000e+03
153	3.50000e+03	3.50000e+03
154	3.70000e+03	3.50000e+03
155	3.80000e+03	3.50000e+03
156	3.70000e+03	3.20000e+03
157	3.80000e+03	3.20000e+03
158	3.90000e+03	3.00000e+03
159	3.50000e+03	2.40000e+03
ITEMS SECTION	(INDEX, PROFIT, WEIGHT, ASSIGNED NODE NUMBER): 
1	1	1008	2
2	896	1006	3
3	367	1006	4
4	690	1001	5
5	613	1006	6
6	874	1001	7
7	122	1009	8
8	486	1004	9
9	823	1001	10
10	463	1003	11
11	589	1004	12
12	325	1009	13
13	1000	1006	14
14	776	1005	15
15	123	1000	16
16	356	1000	17
17	305	1007	18
18	47	1006	19
19	645	1008	20
20	139	1000	21
21	247	1009	22
22	211	1009	23
23	100	1007	24
24	627	1004	25
25	760	1002	26
26	776	1006	27
27	475	1006	28
28	937	1007	29
29	101	1008	30
30	281	1008	31
31	751	1008	32
32	530	1006	33
33	240	1004	34
34	248	1005	35
35	768	1000	36
36	31	1003	37
37	613	1007	38
38	881	1004	39
39	367	1007	40
40	712	1000	41
41	410	1007	42
42	157	1009	43
43	824	1000	44
44	242	1000	45
45	472	1005	46
46	722	1006	47
47	775	1001	48
48	371	1006	49
49	337	1003	50
50	885	1008	51
51	204	1008	52
52	594	1008	53
53	226	1006	54
54	226	1002	55
55	921	1000	56
56	537	1006	57
57	112	1001	58
58	959	1005	59
59	392	1001	60
60	709	1006	61
61	940	1002	62
62	943	1006	63
63	79	1001	64
64	922	1004	65
65	361	1000	66
66	947	1003	67
67	861	1009	68
68	937	1009	69
69	754	1005	70
70	872	1000	71
71	636	1001	72
72	459	1009	73
73	390	1001	74
74	141	1005	75
75	111	1009	76
76	588	1003	77
77	6	1001	78
78	155	1009	79
79	723	1008	80
80	723	1009	81
81	667	1004	82
82	829	1007	83
83	487	1004	84
84	590	1008	85
85	370	1006	86
86	823	1007	87
87	173	1002	88
88	56	1000	89
89	977	1005	90
90	681	1005	91
91	689	1007	92
92	933	1005	93
93	809	1002	94
94	587	1002	95
95	686	1003	96
96	466	1000	97
97	356	1004	98
98	784	1001	99
99	862	1009	100
100	223	1009	101
101	541	1006	102
102	61	1002	103
103	416	1001	104
104	62	1001	105
105	205	1002	106
106	152	1008	107
107	913	1009	108
108	267	1006	109
109	249	1003	110
110	187	1009	111
111	174	1003	112
112	939	1001	113
113	519	1004	114
114	56	1008	115
115	381	1008	116
116	551	1004	117
117	128	1006	118
118	812	1009	119
119	753	1008	120
120	544	1003	121
121	684	1005	122
122	830	1004	123
123	725	1009	124
124	330	1003	125
125	115	1000	126
126	38	1002	127
127	445	1005	128
128	619	1009	129
129	648	1000	130
130	896	1005	131
131	658	1006	132
132	306	1005	133
133	806	1008	134
134	800	1002	135
135	612	1002	136
136	354	1000	137
137	300	1008	138
138	174	1008	139
139	751	1002	140
140	126	1001	141
141	603	1001	142
142	665	1000	143
143	209	1006	144
144	308	1000	145
145	308	1009	146
146	677	1009	147
147	863	1005	148
148	292	1001	149
149	444	1007	150
150	295	1000	151
151	413	1000	152
152	72	1007	153
153	321	1003	154
154	981	1003	155
155	797	1004	156
156	507	1008	157
157	715	1001	158
158	512	1007	159
